6 18 29 139 144 107 158 82 154 67 
163 4 169 184 161 166 71 123 11 157 
170 62 25 10 122 79 116 93 19 39 
152 132 189 101 194 81 1 60 36 
54 100 143 16 72 44 145 80 73 135 
28 153 102 124 20 46 121 115 33 66 64 175 
92 57 167 183 136 27 41 70 120 146 
47 49 173 188 125 74 192 55 34 30 
142 88 199 113 191 69 134 178 193 148 
165 65 177 112 21 50 126 2 97 75 
48 7 179 196 180 150 129 17 174 76 185 83 
12 37 59 99 109 23 117 114 86 8 96 
131 156 43 200 186 138 87 137 13 141 
162 42 172 197 5 159 26 77 90 91 
155 108 38 32 52 22 
149 63 164 35 110 95 
195 182 24 78 171 130 187 
140 40 133 98 119 198 106 
9 85 45 56 94 160 151 
31 128 168 
127 118 84 105 176 58 
15 68 190 61 111 
147 14 51 
181 104 
103 3 
53 
89 

